p edge 50 239
1 2
1 48
1 42
1 22
1 37
2 29
2 3
2 21
2 47
3 16
3 37
3 23
3 6
3 4
4 33
4 50
4 36
4 5
4 39
5 34
5 6
5 44
5 25
6 7
6 4
6 21
6 1
6 41
7 10
7 35
7 21
7 5
7 8
8 39
8 9
8 26
8 33
8 49
9 23
9 10
9 28
9 41
9 36
10 11
10 38
10 14
10 50
11 12
11 30
11 23
11 6
11 41
12 43
12 13
12 10
12 48
13 14
13 44
13 24
13 34
13 5
14 19
14 38
14 12
14 18
14 15
15 19
15 46
15 41
15 4
15 16
16 17
16 18
16 46
16 1
17 42
17 26
17 10
17 27
17 18
18 33
18 17
18 26
18 19
18 15
19 13
19 20
19 36
19 27
19 31
20 50
20 41
20 18
20 21
20 30
21 37
21 36
21 2
21 27
21 22
22 38
22 5
22 37
22 23
23 44
23 12
23 16
23 7
23 24
24 25
24 33
24 5
24 49
25 26
25 28
25 45
25 17
26 24
26 41
26 7
26 15
26 27
27 45
27 25
27 35
27 21
27 28
28 31
28 14
28 5
28 29
28 25
29 30
29 28
29 6
29 50
29 20
30 31
30 32
30 27
30 28
30 16
31 2
31 16
31 21
31 32
31 49
32 25
32 50
32 33
32 8
32 42
33 19
33 48
33 46
33 34
33 22
34 35
34 23
34 49
34 20
35 36
35 26
35 50
35 40
35 10
36 37
36 25
36 39
36 41
36 38
37 27
37 40
37 38
37 26
37 18
38 44
38 30
38 39
38 20
38 26
39 20
39 19
39 9
39 28
39 40
40 41
40 1
40 31
40 32
40 30
41 23
41 36
41 42
41 50
42 37
42 25
42 43
42 18
42 38
43 44
43 42
43 22
43 28
43 50
44 48
44 49
44 45
44 33
44 23
45 46
45 39
45 14
45 22
45 12
46 47
46 38
46 7
46 41
46 23
47 48
47 49
47 6
47 5
47 27
48 49
48 46
48 36
48 42
48 18
49 7
49 16
49 50
49 43
50 1
50 2
50 30
50 27
50 19
